*Heading
 /home/ssg/Documentos/ANH951_H2_storage/h2-storage/01_design/malla_tanque.inp
*NODE
1, 21.459934234619, 107.88638305664, 0
2, 10.781885147095, 109.47032165527, 500
3, 21.459934234619, 107.88638305664, 500
4, 10.781885147095, 109.47032165527, 0
5, 109.47032165527, 10.781885147095, 500
6, 107.88638305664, 21.459934234619, 0
7, 107.88638305664, 21.459934234619, 500
8, 109.47032165527, 10.781885147095, 0
9, 110, 0, 500
10, 110, 0, 0
11, 105.26343536377, 31.931314468384, 0
12, 105.26343536377, 31.931314468384, 500
13, 31.931314468384, -105.26343536377, 0
14, 42.095176696777, -101.62674713135, 500
15, 31.931314468384, -105.26343536377, 500
16, 42.095176696777, -101.62674713135, 0
17, 97.011337280273, -51.85364151001, 500
18, 101.62674713135, -42.095176696777, 0
19, 101.62674713135, -42.095176696777, 500
20, 97.011337280273, -51.85364151001, 0
21, 77.781745910645, 77.781745910645, 0
22, 69.783264160156, 85.031150817871, 500
23, 77.781745910645, 77.781745910645, 500
24, 69.783264160156, 85.031150817871, 0
25, -85.031150817871, 69.783264160156, 0
26, -77.781745910645, 77.781745910645, 500
27, -77.781745910645, 77.781745910645, 0
28, -85.031150817871, 69.783264160156, 500
29, -21.459934234619, -107.88638305664, 0
30, -10.781885147095, -109.47032165527, 500
31, -21.459934234619, -107.88638305664, 500
32, -10.781885147095, -109.47032165527, 0
33, 101.62674713135, 42.095176696777, 0
34, 101.62674713135, 42.095176696777, 500
35, 0, 110, 0
36, -10.781885147095, 109.47032165527, 500
37, 0, 110, 500
38, -10.781885147095, 109.47032165527, 0
39, 91.461654663086, 61.112724304199, 500
40, 85.031150817871, 69.783264160156, 0
41, 85.031150817871, 69.783264160156, 500
42, 91.461654663086, 61.112724304199, 0
43, 0, -110, 0
44, 10.781885147095, -109.47032165527, 500
45, 0, -110, 500
46, 10.781885147095, -109.47032165527, 0
47, 91.461654663086, -61.112724304199, 500
48, 91.461654663086, -61.112724304199, 0
49, -69.783264160156, -85.031150817871, 0
50, -61.112724304199, -91.461654663086, 500
51, -69.783264160156, -85.031150817871, 500
52, -61.112724304199, -91.461654663086, 0
53, -97.011337280273, 51.85364151001, 0
54, -91.461654663086, 61.112724304199, 500
55, -91.461654663086, 61.112724304199, 0
56, -97.011337280273, 51.85364151001, 500
57, -31.931314468384, -105.26343536377, 0
58, -31.931314468384, -105.26343536377, 500
59, 97.011337280273, 51.85364151001, 500
60, 97.011337280273, 51.85364151001, 0
61, -109.47032165527, -10.781885147095, 0
62, -110, 0, 500
63, -110, 0, 0
64, -109.47032165527, -10.781885147095, 500
65, 105.26343536377, -31.931314468384, 500
66, 107.88638305664, -21.459934234619, 0
67, 107.88638305664, -21.459934234619, 500
68, 105.26343536377, -31.931314468384, 0
69, -107.88638305664, 21.459934234619, 0
70, -105.26343536377, 31.931314468384, 500
71, -105.26343536377, 31.931314468384, 0
72, -107.88638305664, 21.459934234619, 500
73, -51.85364151001, -97.011337280273, 0
74, -42.095176696777, -101.62674713135, 500
75, -51.85364151001, -97.011337280273, 500
76, -42.095176696777, -101.62674713135, 0
77, -105.26343536377, -31.931314468384, 0
78, -107.88638305664, -21.459934234619, 500
79, -107.88638305664, -21.459934234619, 0
80, -105.26343536377, -31.931314468384, 500
81, 42.095176696777, 101.62674713135, 0
82, 31.931314468384, 105.26343536377, 500
83, 42.095176696777, 101.62674713135, 500
84, 31.931314468384, 105.26343536377, 0
85, 109.47032165527, -10.781885147095, 0
86, 109.47032165527, -10.781885147095, 500
87, -21.459934234619, 107.88638305664, 500
88, -21.459934234619, 107.88638305664, 0
89, 51.85364151001, -97.011337280273, 500
90, 51.85364151001, -97.011337280273, 0
91, -69.783264160156, 85.031150817871, 0
92, -69.783264160156, 85.031150817871, 500
93, 85.031150817871, -69.783264160156, 0
94, 77.781745910645, -77.781745910645, 0
95, 69.783264160156, -85.031150817871, 0
96, 61.112724304199, -91.461654663086, 0
97, 61.112724304199, 91.461654663086, 0
98, 51.85364151001, 97.011337280273, 0
99, 21.459934234619, -107.88638305664, 0
100, -31.931314468384, 105.26343536377, 0
101, -42.095176696777, 101.62674713135, 0
102, -51.85364151001, 97.011337280273, 0
103, -61.112724304199, 91.461654663086, 0
104, -77.781745910645, -77.781745910645, 0
105, -85.031150817871, -69.783264160156, 0
106, -91.461654663086, -61.112724304199, 0
107, -97.011337280273, -51.85364151001, 0
108, -101.62674713135, -42.095176696777, 0
109, -101.62674713135, 42.095176696777, 0
110, -109.47032165527, 10.781885147095, 0
111, -61.112724304199, 91.461654663086, 500
112, -51.85364151001, 97.011337280273, 500
113, -42.095176696777, 101.62674713135, 500
114, -101.62674713135, -42.095176696777, 500
115, 51.85364151001, 97.011337280273, 500
116, 61.112724304199, 91.461654663086, 500
117, 21.459934234619, -107.88638305664, 500
118, 77.781745910645, -77.781745910645, 500
119, 85.031150817871, -69.783264160156, 500
120, -31.931314468384, 105.26343536377, 500
121, -97.011337280273, -51.85364151001, 500
122, -109.47032165527, 10.781885147095, 500
123, -85.031150817871, -69.783264160156, 500
124, -77.781745910645, -77.781745910645, 500
125, -91.461654663086, -61.112724304199, 500
126, -101.62674713135, 42.095176696777, 500
127, 69.783264160156, -85.031150817871, 500
128, 61.112724304199, -91.461654663086, 500
******* E L E M E N T S *************
*ELEMENT, type=CPS3, ELSET=Surface1
1, 1, 2, 3
2, 2, 1, 4
3, 5, 6, 7
4, 6, 5, 8
5, 9, 8, 5
6, 8, 9, 10
7, 7, 11, 12
8, 11, 7, 6
9, 13, 14, 15
10, 14, 13, 16
11, 17, 18, 19
12, 18, 17, 20
13, 21, 22, 23
14, 22, 21, 24
15, 25, 26, 27
16, 26, 25, 28
17, 29, 30, 31
18, 30, 29, 32
19, 12, 33, 34
20, 33, 12, 11
21, 35, 36, 37
22, 36, 35, 38
23, 39, 40, 41
24, 40, 39, 42
25, 43, 44, 45
26, 44, 43, 46
27, 4, 37, 2
28, 37, 4, 35
29, 47, 20, 17
30, 20, 47, 48
31, 49, 50, 51
32, 50, 49, 52
33, 53, 54, 55
34, 54, 53, 56
35, 57, 31, 58
36, 31, 57, 29
37, 59, 42, 39
38, 42, 59, 60
39, 61, 62, 63
40, 62, 61, 64
41, 34, 60, 59
42, 60, 34, 33
43, 65, 66, 67
44, 66, 65, 68
45, 69, 70, 71
46, 70, 69, 72
47, 73, 74, 75
48, 74, 73, 76
49, 77, 78, 79
50, 78, 77, 80
51, 81, 82, 83
52, 82, 81, 84
53, 67, 85, 86
54, 85, 67, 66
55, 38, 87, 36
56, 87, 38, 88
57, 16, 89, 14
58, 89, 16, 90
59, 91, 26, 92
60, 26, 91, 27
61, 85, 8, 10
62, 66, 8, 85
63, 66, 6, 8
64, 68, 6, 66
65, 68, 11, 6
66, 18, 11, 68
67, 18, 33, 11
68, 20, 33, 18
69, 20, 60, 33
70, 48, 60, 20
71, 48, 42, 60
72, 93, 42, 48
73, 93, 40, 42
74, 94, 40, 93
75, 94, 21, 40
76, 95, 21, 94
77, 95, 24, 21
78, 96, 24, 95
79, 96, 97, 24
80, 90, 97, 96
81, 90, 98, 97
82, 16, 98, 90
83, 16, 81, 98
84, 13, 81, 16
85, 13, 84, 81
86, 99, 84, 13
87, 99, 1, 84
88, 46, 1, 99
89, 46, 4, 1
90, 43, 4, 46
91, 43, 35, 4
92, 32, 35, 43
93, 32, 38, 35
94, 29, 38, 32
95, 29, 88, 38
96, 57, 88, 29
97, 57, 100, 88
98, 76, 100, 57
99, 76, 101, 100
100, 73, 101, 76
101, 73, 102, 101
102, 52, 102, 73
103, 52, 103, 102
104, 49, 103, 52
105, 49, 91, 103
106, 104, 91, 49
107, 104, 27, 91
108, 105, 27, 104
109, 105, 25, 27
110, 106, 25, 105
111, 106, 55, 25
112, 107, 55, 106
113, 107, 53, 55
114, 108, 53, 107
115, 108, 109, 53
116, 77, 109, 108
117, 77, 71, 109
118, 79, 71, 77
119, 79, 69, 71
120, 61, 69, 79
121, 61, 110, 69
122, 110, 61, 63
123, 103, 92, 111
124, 92, 103, 91
125, 84, 3, 82
126, 3, 84, 1
127, 86, 10, 9
128, 10, 86, 85
129, 101, 112, 113
130, 112, 101, 102
131, 108, 80, 77
132, 80, 108, 114
133, 97, 115, 116
134, 115, 97, 98
135, 24, 116, 22
136, 116, 24, 97
137, 46, 117, 44
138, 117, 46, 99
139, 118, 93, 119
140, 93, 118, 94
141, 119, 48, 47
142, 48, 119, 93
143, 99, 15, 117
144, 15, 99, 13
145, 19, 68, 65
146, 68, 19, 18
147, 88, 120, 87
148, 120, 88, 100
149, 107, 114, 108
150, 114, 107, 121
151, 110, 72, 69
152, 72, 110, 122
153, 98, 83, 115
154, 83, 98, 81
155, 104, 123, 105
156, 123, 104, 124
157, 106, 121, 107
158, 121, 106, 125
159, 100, 113, 120
160, 113, 100, 101
161, 52, 75, 50
162, 75, 52, 73
163, 71, 126, 109
164, 126, 71, 70
165, 96, 127, 128
166, 127, 96, 95
167, 41, 21, 23
168, 21, 41, 40
169, 105, 125, 106
170, 125, 105, 123
171, 102, 111, 112
172, 111, 102, 103
173, 79, 64, 61
174, 64, 79, 78
175, 109, 56, 53
176, 56, 109, 126
177, 90, 128, 89
178, 128, 90, 96
179, 104, 51, 124
180, 51, 104, 49
181, 55, 28, 25
182, 28, 55, 54
183, 32, 45, 30
184, 45, 32, 43
185, 5, 86, 9
186, 7, 86, 5
187, 7, 67, 86
188, 12, 67, 7
189, 12, 65, 67
190, 34, 65, 12
191, 34, 19, 65
192, 59, 19, 34
193, 59, 17, 19
194, 39, 17, 59
195, 39, 47, 17
196, 41, 47, 39
197, 41, 119, 47
198, 23, 119, 41
199, 23, 118, 119
200, 22, 118, 23
201, 22, 127, 118
202, 116, 127, 22
203, 116, 128, 127
204, 115, 128, 116
205, 115, 89, 128
206, 83, 89, 115
207, 83, 14, 89
208, 82, 14, 83
209, 82, 15, 14
210, 3, 15, 82
211, 3, 117, 15
212, 2, 117, 3
213, 2, 44, 117
214, 37, 44, 2
215, 37, 45, 44
216, 36, 45, 37
217, 36, 30, 45
218, 87, 30, 36
219, 87, 31, 30
220, 120, 31, 87
221, 120, 58, 31
222, 113, 58, 120
223, 113, 74, 58
224, 112, 74, 113
225, 112, 75, 74
226, 111, 75, 112
227, 111, 50, 75
228, 92, 50, 111
229, 92, 51, 50
230, 26, 51, 92
231, 26, 124, 51
232, 28, 124, 26
233, 28, 123, 124
234, 54, 123, 28
235, 54, 125, 123
236, 56, 125, 54
237, 56, 121, 125
238, 126, 121, 56
239, 126, 114, 121
240, 70, 114, 126
241, 70, 80, 114
242, 72, 80, 70
243, 72, 78, 80
244, 122, 78, 72
245, 122, 64, 78
246, 64, 122, 62
247, 63, 122, 110
248, 122, 63, 62
249, 76, 58, 74
250, 58, 76, 57
251, 95, 118, 127
252, 118, 95, 94
